(benchmark gametime
:status unknown
:logic QF_AUFBV
:extrafuns ((gtINDEX56  BitVec[32]))
:extrafuns ((gtFIELD__bitsForTID0__gtAGG____anonstruct_D_Work_4  Array[32:32]))
:extrafuns ((gtINDEX57  BitVec[32]))
:extrafuns ((gtAGG__rtDWork  BitVec[32]))
:extrafuns ((gtINDEX54  BitVec[32]))
:extrafuns ((gtINDEX55  BitVec[32]))
:extrafuns ((gtINDEX52  BitVec[32]))
:extrafuns ((gtINDEX53  BitVec[32]))
:extrafuns ((gtINDEX50  BitVec[32]))
:extrafuns ((gtINDEX51  BitVec[32]))
:extrafuns ((gtINDEX49  BitVec[32]))
:extrafuns ((gtINDEX48  BitVec[32]))
:extrafuns ((gtINDEX47  BitVec[32]))
:extrafuns ((gtINDEX46  BitVec[32]))
:extrafuns ((gtINDEX44  BitVec[32]))
:extrafuns ((gtINDEX45  BitVec[32]))
:extrafuns ((gtINDEX42  BitVec[32]))
:extrafuns ((gtINDEX43  BitVec[32]))
:extrafuns ((gtINDEX40  BitVec[32]))
:extrafuns ((gtINDEX41  BitVec[32]))
:extrafuns ((gtINDEX38  BitVec[32]))
:extrafuns ((gtINDEX39  BitVec[32]))
:extrafuns ((gtINDEX36  BitVec[32]))
:extrafuns ((gtINDEX37  BitVec[32]))
:extrafuns ((gtINDEX34  BitVec[32]))
:extrafuns ((gtINDEX35  BitVec[32]))
:extrafuns ((gtINDEX32  BitVec[32]))
:extrafuns ((gtINDEX33  BitVec[32]))
:extrafuns ((gtINDEX30  BitVec[32]))
:extrafuns ((gtINDEX31  BitVec[32]))
:extrafuns ((gtINDEX28  BitVec[32]))
:extrafuns ((gtINDEX29  BitVec[32]))
:extrafuns ((gtINDEX26  BitVec[32]))
:extrafuns ((gtINDEX27  BitVec[32]))
:extrafuns ((gtINDEX25  BitVec[32]))
:extrafuns ((gtINDEX24  BitVec[32]))
:extrafuns ((gtINDEX23  BitVec[32]))
:extrafuns ((gtINDEX22  BitVec[32]))
:extrafuns ((gtINDEX21  BitVec[32]))
:extrafuns ((gtINDEX20  BitVec[32]))
:extrafuns ((gtINDEX18  BitVec[32]))
:extrafuns ((gtINDEX19  BitVec[32]))
:extrafuns ((gtINDEX16  BitVec[32]))
:extrafuns ((gtINDEX17  BitVec[32]))
:extrafuns ((gtINDEX14  BitVec[32]))
:extrafuns ((gtINDEX15  BitVec[32]))
:extrafuns ((gtINDEX12  BitVec[32]))
:extrafuns ((gtINDEX13  BitVec[32]))
:extrafuns ((gtINDEX10  BitVec[32]))
:extrafuns ((gtINDEX11  BitVec[32]))
:extrafuns ((gtINDEX8  BitVec[32]))
:extrafuns ((gtINDEX9  BitVec[32]))
:extrafuns ((gtINDEX6  BitVec[32]))
:extrafuns ((gtINDEX7  BitVec[32]))
:extrafuns ((gtINDEX4  BitVec[32]))
:extrafuns ((gtINDEX5  BitVec[32]))
:extrafuns ((gtINDEX2  BitVec[32]))
:extrafuns ((gtINDEX3  BitVec[32]))
:extrafuns ((gtINDEX0  BitVec[32]))
:extrafuns ((gtINDEX1  BitVec[32]))
:extrafuns ((gtFIELD__is_Eng__gtAGG____anonstruct_bitsForTID0_5_1_  Array[32:1]))
:extrafuns ((gtFIELD__is_Eng__gtAGG____anonstruct_bitsForTID0_5_2_  Array[32:1]))
:extrafuns ((sf_previousEvent_1_  BitVec[32]))
:extrafuns ((sfEvent__2_  BitVec[32]))
:extrafuns ((gtFIELD__is_Eng__gtAGG____anonstruct_bitsForTID0_5  Array[32:1]))
:extrafuns ((gtFIELD__sent__gtAGG____anonstruct_D_Work_4_1_  Array[32:32]))
:extrafuns ((gtFIELD__sent__gtAGG____anonstruct_D_Work_4_2_  Array[32:32]))
:extrafuns ((gtFIELD__is_active_Eng__gtAGG____anonstruct_bitsForTID0_5  Array[32:1]))
:extrafuns ((gtFIELD__is_active_PURI__gtAGG____anonstruct_bitsForTID0_5  Array[32:1]))
:extrafuns ((gtFIELD__is_active_PVRP__gtAGG____anonstruct_bitsForTID0_5  Array[32:1]))
:extrafuns ((gtFIELD__is_active_PPVARP__gtAGG____anonstruct_bitsForTID0_5  Array[32:1]))
:extrafuns ((gtFIELD__is_active_PLRI__gtAGG____anonstruct_bitsForTID0_5  Array[32:1]))
:extrafuns ((sfEvent__1_  BitVec[32]))
:extrafuns ((gtFIELD__is_PAVI__gtAGG____anonstruct_bitsForTID0_5  Array[32:3]))
:extrafuns ((gtFIELD__is_active_PAVI__gtAGG____anonstruct_bitsForTID0_5  Array[32:1]))
:extrafuns ((sfEvent_  BitVec[32]))
:extrafuns ((gtFIELD__sent__gtAGG____anonstruct_D_Work_4  Array[32:32]))
:extrapreds ((constraint98 ))
:extrapreds ((constraint97 ))
:extrapreds ((constraint96 ))
:extrapreds ((constraint95 ))
:extrapreds ((constraint94 ))
:extrapreds ((constraint93 ))
:extrapreds ((constraint92 ))
:extrapreds ((constraint91 ))
:extrapreds ((constraint90 ))
:extrapreds ((constraint89 ))
:extrapreds ((constraint88 ))
:extrapreds ((constraint87 ))
:extrapreds ((constraint86 ))
:extrapreds ((constraint85 ))
:extrapreds ((constraint84 ))
:extrapreds ((constraint83 ))
:extrapreds ((constraint82 ))
:extrapreds ((constraint81 ))
:extrapreds ((constraint80 ))
:extrapreds ((constraint79 ))
:extrapreds ((constraint78 ))
:extrapreds ((constraint77 ))
:extrapreds ((constraint76 ))
:extrapreds ((constraint75 ))
:extrapreds ((constraint74 ))
:extrapreds ((constraint73 ))
:extrapreds ((constraint72 ))
:extrapreds ((constraint71 ))
:extrapreds ((constraint70 ))
:extrapreds ((constraint69 ))
:extrapreds ((constraint68 ))
:extrapreds ((constraint67 ))
:extrapreds ((constraint66 ))
:extrapreds ((constraint65 ))
:extrapreds ((constraint64 ))
:extrapreds ((constraint63 ))
:extrapreds ((constraint62 ))
:extrapreds ((constraint61 ))
:extrapreds ((constraint60 ))
:extrapreds ((constraint59 ))
:extrapreds ((constraint58 ))
:extrapreds ((constraint57 ))
:extrapreds ((constraint56 ))
:extrapreds ((constraint55 ))
:extrapreds ((constraint54 ))
:extrapreds ((constraint53 ))
:extrapreds ((constraint52 ))
:extrapreds ((constraint51 ))
:extrapreds ((constraint50 ))
:extrapreds ((constraint49 ))
:extrapreds ((constraint48 ))
:extrapreds ((constraint47 ))
:extrapreds ((constraint46 ))
:extrapreds ((constraint45 ))
:extrapreds ((constraint44 ))
:extrapreds ((constraint43 ))
:extrapreds ((constraint42 ))
:extrapreds ((constraint41 ))
:extrapreds ((constraint40 ))
:extrapreds ((constraint39 ))
:extrapreds ((constraint38 ))
:extrapreds ((constraint37 ))
:extrapreds ((constraint36 ))
:extrapreds ((constraint35 ))
:extrapreds ((constraint34 ))
:extrapreds ((constraint33 ))
:extrapreds ((constraint32 ))
:extrapreds ((constraint31 ))
:extrapreds ((constraint30 ))
:extrapreds ((constraint29 ))
:extrapreds ((constraint28 ))
:extrapreds ((constraint27 ))
:extrapreds ((constraint26 ))
:extrapreds ((constraint25 ))
:extrapreds ((constraint24 ))
:extrapreds ((constraint23 ))
:extrapreds ((constraint22 ))
:extrapreds ((constraint21 ))
:extrapreds ((constraint20 ))
:extrapreds ((constraint19 ))
:extrapreds ((constraint18 ))
:extrapreds ((constraint17 ))
:extrapreds ((constraint16 ))
:extrapreds ((constraint15 ))
:extrapreds ((constraint14 ))
:extrapreds ((constraint13 ))
:extrapreds ((constraint12 ))
:extrapreds ((constraint11 ))
:extrapreds ((constraint10 ))
:extrapreds ((constraint9 ))
:extrapreds ((constraint8 ))
:extrapreds ((constraint7 ))
:extrapreds ((constraint6 ))
:extrapreds ((constraint5 ))
:extrapreds ((constraint4 ))
:extrapreds ((constraint3 ))
:extrapreds ((constraint2 ))
:extrapreds ((constraint1 ))
:extrapreds ((constraint0 ))
:formula
(flet ($x522 (and constraint0 constraint1 constraint2 constraint3 constraint4 constraint5 constraint6 constraint7 constraint8 constraint9 constraint10 constraint11 constraint12 constraint13 constraint14 constraint15 constraint16 constraint17 constraint18 constraint19 constraint20 constraint21 constraint22 constraint23 constraint24 constraint25 constraint26 constraint27 constraint28 constraint29 constraint30 constraint31 constraint32 constraint33 constraint34 constraint35 constraint36 constraint37 constraint38 constraint39 constraint40 constraint41 constraint42 constraint43 constraint44 constraint45 constraint46 constraint47 constraint48 constraint49 constraint50 constraint51 constraint52 constraint53 constraint54 constraint55 constraint56 constraint57 constraint58 constraint59 constraint60 constraint61 constraint62 constraint63 constraint64 constraint65 constraint66 constraint67 constraint68 constraint69 constraint70 constraint71 constraint72 constraint73 constraint74 constraint75 constraint76 constraint77 constraint78 constraint79 constraint80 constraint81 constraint82 constraint83 constraint84 constraint85 constraint86 constraint87 constraint88 constraint89 constraint90 constraint91 constraint92 constraint93 constraint94 constraint95 constraint96 constraint97 constraint98))
(flet ($x322 (= gtINDEX57 (select gtFIELD__bitsForTID0__gtAGG____anonstruct_D_Work_4 gtINDEX56)))
(flet ($x318 (= gtINDEX55 (select gtFIELD__bitsForTID0__gtAGG____anonstruct_D_Work_4 gtINDEX54)))
(flet ($x314 (= gtINDEX53 (select gtFIELD__bitsForTID0__gtAGG____anonstruct_D_Work_4 gtINDEX52)))
(flet ($x310 (= gtINDEX51 (select gtFIELD__bitsForTID0__gtAGG____anonstruct_D_Work_4 gtINDEX50)))
(flet ($x302 (= gtINDEX45 (select gtFIELD__bitsForTID0__gtAGG____anonstruct_D_Work_4 gtINDEX44)))
(flet ($x298 (= gtINDEX43 (select gtFIELD__bitsForTID0__gtAGG____anonstruct_D_Work_4 gtINDEX42)))
(flet ($x294 (= gtINDEX41 (select gtFIELD__bitsForTID0__gtAGG____anonstruct_D_Work_4 gtINDEX40)))
(flet ($x290 (= gtINDEX39 (select gtFIELD__bitsForTID0__gtAGG____anonstruct_D_Work_4 gtINDEX38)))
(flet ($x286 (= gtINDEX37 (select gtFIELD__bitsForTID0__gtAGG____anonstruct_D_Work_4 gtINDEX36)))
(flet ($x282 (= gtINDEX35 (select gtFIELD__bitsForTID0__gtAGG____anonstruct_D_Work_4 gtINDEX34)))
(flet ($x278 (= gtINDEX33 (select gtFIELD__bitsForTID0__gtAGG____anonstruct_D_Work_4 gtINDEX32)))
(flet ($x274 (= gtINDEX31 (select gtFIELD__bitsForTID0__gtAGG____anonstruct_D_Work_4 gtINDEX30)))
(flet ($x270 (= gtINDEX29 (select gtFIELD__bitsForTID0__gtAGG____anonstruct_D_Work_4 gtINDEX28)))
(flet ($x266 (= gtINDEX27 (select gtFIELD__bitsForTID0__gtAGG____anonstruct_D_Work_4 gtINDEX26)))
(flet ($x256 (= gtINDEX19 (select gtFIELD__bitsForTID0__gtAGG____anonstruct_D_Work_4 gtINDEX18)))
(flet ($x252 (= gtINDEX17 (select gtFIELD__bitsForTID0__gtAGG____anonstruct_D_Work_4 gtINDEX16)))
(flet ($x248 (= gtINDEX15 (select gtFIELD__bitsForTID0__gtAGG____anonstruct_D_Work_4 gtINDEX14)))
(flet ($x244 (= gtINDEX13 (select gtFIELD__bitsForTID0__gtAGG____anonstruct_D_Work_4 gtINDEX12)))
(flet ($x240 (= gtINDEX11 (select gtFIELD__bitsForTID0__gtAGG____anonstruct_D_Work_4 gtINDEX10)))
(flet ($x236 (= gtINDEX9 (select gtFIELD__bitsForTID0__gtAGG____anonstruct_D_Work_4 gtINDEX8)))
(flet ($x232 (= gtINDEX7 (select gtFIELD__bitsForTID0__gtAGG____anonstruct_D_Work_4 gtINDEX6)))
(flet ($x228 (= gtINDEX5 (select gtFIELD__bitsForTID0__gtAGG____anonstruct_D_Work_4 gtINDEX4)))
(flet ($x224 (= gtINDEX3 (select gtFIELD__bitsForTID0__gtAGG____anonstruct_D_Work_4 gtINDEX2)))
(flet ($x220 (= gtINDEX1 (select gtFIELD__bitsForTID0__gtAGG____anonstruct_D_Work_4 gtINDEX0)))
(let (?x204 (extract[0:0] bv1[32]))
(let (?x214 (store gtFIELD__is_Eng__gtAGG____anonstruct_bitsForTID0_5_1_ gtINDEX57 ?x204))
(flet ($x404 (iff constraint40 (= gtFIELD__is_Eng__gtAGG____anonstruct_bitsForTID0_5_2_ ?x214)))
(let (?x210 (select gtFIELD__is_Eng__gtAGG____anonstruct_bitsForTID0_5_1_ gtINDEX55))
(let (?x205 (store gtFIELD__is_Eng__gtAGG____anonstruct_bitsForTID0_5 gtINDEX53 ?x204))
(flet ($x398 (iff constraint37 (= gtFIELD__is_Eng__gtAGG____anonstruct_bitsForTID0_5_1_ ?x205)))
(let (?x201 (zero_extend[31] (select gtFIELD__is_Eng__gtAGG____anonstruct_bitsForTID0_5 gtINDEX51)))
(let (?x197 (store gtFIELD__sent__gtAGG____anonstruct_D_Work_4_1_ gtINDEX49 bv0[32]))
(flet ($x394 (iff constraint35 (= gtFIELD__sent__gtAGG____anonstruct_D_Work_4_2_ ?x197)))
(let (?x112 (bvmul bv4294967295[32] bv1[32]))
(flet ($x195 (= (select gtFIELD__sent__gtAGG____anonstruct_D_Work_4_1_ gtINDEX48) ?x112))
(flet ($x191 (= (select gtFIELD__sent__gtAGG____anonstruct_D_Work_4_1_ gtINDEX47) bv9[32]))
(flet ($x187 (= (select gtFIELD__sent__gtAGG____anonstruct_D_Work_4_1_ gtINDEX46) bv4[32]))
(let (?x183 (zero_extend[31] (select gtFIELD__is_Eng__gtAGG____anonstruct_bitsForTID0_5 gtINDEX45)))
(let (?x177 (select gtFIELD__is_active_Eng__gtAGG____anonstruct_bitsForTID0_5 gtINDEX43))
(let (?x171 (select gtFIELD__is_active_PURI__gtAGG____anonstruct_bitsForTID0_5 gtINDEX41))
(let (?x165 (select gtFIELD__is_active_PVRP__gtAGG____anonstruct_bitsForTID0_5 gtINDEX39))
(let (?x159 (select gtFIELD__is_active_PPVARP__gtAGG____anonstruct_bitsForTID0_5 gtINDEX37))
(let (?x153 (select gtFIELD__is_active_PLRI__gtAGG____anonstruct_bitsForTID0_5 gtINDEX35))
(let (?x147 (select gtFIELD__is_PAVI__gtAGG____anonstruct_bitsForTID0_5 gtINDEX33))
(let (?x142 (select gtFIELD__is_PAVI__gtAGG____anonstruct_bitsForTID0_5 gtINDEX31))
(let (?x137 (select gtFIELD__is_PAVI__gtAGG____anonstruct_bitsForTID0_5 gtINDEX29))
(let (?x132 (select gtFIELD__is_active_PAVI__gtAGG____anonstruct_bitsForTID0_5 gtINDEX27))
(flet ($x124 (= gtFIELD__sent__gtAGG____anonstruct_D_Work_4_1_ (store gtFIELD__sent__gtAGG____anonstruct_D_Work_4 gtINDEX25 ?x112)))
(flet ($x121 (= (select gtFIELD__sent__gtAGG____anonstruct_D_Work_4 gtINDEX24) bv2[32]))
(flet ($x117 (= (select gtFIELD__sent__gtAGG____anonstruct_D_Work_4 gtINDEX23) bv1[32]))
(flet ($x113 (= (select gtFIELD__sent__gtAGG____anonstruct_D_Work_4 gtINDEX22) ?x112))
(flet ($x107 (= (select gtFIELD__sent__gtAGG____anonstruct_D_Work_4 gtINDEX21) bv9[32]))
(flet ($x102 (= (select gtFIELD__sent__gtAGG____anonstruct_D_Work_4 gtINDEX20) bv4[32]))
(let (?x97 (zero_extend[31] (select gtFIELD__is_Eng__gtAGG____anonstruct_bitsForTID0_5 gtINDEX19)))
(let (?x91 (select gtFIELD__is_active_Eng__gtAGG____anonstruct_bitsForTID0_5 gtINDEX17))
(let (?x85 (select gtFIELD__is_active_PURI__gtAGG____anonstruct_bitsForTID0_5 gtINDEX15))
(let (?x79 (select gtFIELD__is_active_PVRP__gtAGG____anonstruct_bitsForTID0_5 gtINDEX13))
(let (?x73 (select gtFIELD__is_active_PPVARP__gtAGG____anonstruct_bitsForTID0_5 gtINDEX11))
(let (?x67 (select gtFIELD__is_active_PLRI__gtAGG____anonstruct_bitsForTID0_5 gtINDEX9))
(let (?x60 (zero_extend[29] (select gtFIELD__is_PAVI__gtAGG____anonstruct_bitsForTID0_5 gtINDEX7)))
(let (?x54 (zero_extend[29] (select gtFIELD__is_PAVI__gtAGG____anonstruct_bitsForTID0_5 gtINDEX5)))
(let (?x48 (zero_extend[29] (select gtFIELD__is_PAVI__gtAGG____anonstruct_bitsForTID0_5 gtINDEX3)))
(let (?x41 (select gtFIELD__is_active_PAVI__gtAGG____anonstruct_bitsForTID0_5 gtINDEX1))
(flet ($x521 (and (iff constraint0 (not (= sfEvent_ bv8[32]))) (iff constraint1 (not (= (zero_extend[31] ?x41) bv0[32]))) (iff constraint2 (not (= ?x48 bv1[32]))) (iff constraint3 (not (= ?x54 bv2[32]))) (iff constraint4 (= ?x60 bv3[32])) (iff constraint5 (not (= sfEvent_ bv6[32]))) (iff constraint6 (not (not (= (zero_extend[31] ?x67) bv0[32])))) (iff constraint7 (not (not (= (zero_extend[31] ?x73) bv0[32])))) (iff constraint8 (not (not (= (zero_extend[31] ?x79) bv0[32])))) (iff constraint9 (not (not (= (zero_extend[31] ?x85) bv0[32])))) (iff constraint10 (not (= (zero_extend[31] ?x91) bv0[32]))) (iff constraint11 (= ?x97 bv1[32])) (iff constraint12 (not $x102)) (iff constraint13 (not $x107)) (iff constraint14 (not $x113)) (iff constraint15 (not $x117)) (iff constraint16 $x121) (iff constraint17 $x124) (iff constraint18 (= sf_previousEvent_1_ sfEvent_)) (iff constraint19 (= sfEvent__1_ bv3[32])) (iff constraint20 (not (= sfEvent__1_ bv8[32]))) (iff constraint21 (not (= (zero_extend[31] ?x132) bv0[32]))) (iff constraint22 (not (= (zero_extend[29] ?x137) bv1[32]))) (iff constraint23 (not (= (zero_extend[29] ?x142) bv2[32]))) (iff constraint24 (= (zero_extend[29] ?x147) bv3[32])) (iff constraint25 (not (= sfEvent__1_ bv6[32]))) (iff constraint26 (not (not (= (zero_extend[31] ?x153) bv0[32])))) (iff constraint27 (not (not (= (zero_extend[31] ?x159) bv0[32])))) (iff constraint28 (not (not (= (zero_extend[31] ?x165) bv0[32])))) (iff constraint29 (not (not (= (zero_extend[31] ?x171) bv0[32])))) (iff constraint30 (not (= (zero_extend[31] ?x177) bv0[32]))) (iff constraint31 (= ?x183 bv1[32])) (iff constraint32 (not $x187)) (iff constraint33 (not $x191)) (iff constraint34 $x195) $x394 (iff constraint36 (= ?x201 bv1[32])) $x398 (iff constraint38 (= sfEvent__2_ sf_previousEvent_1_)) (iff constraint39 (= (zero_extend[31] ?x210) bv1[32])) $x404 (iff constraint41 (= gtINDEX0 gtAGG__rtDWork)) (iff constraint42 $x220) (iff constraint43 (= gtINDEX2 gtAGG__rtDWork)) (iff constraint44 $x224) (iff constraint45 (= gtINDEX4 gtAGG__rtDWork)) (iff constraint46 $x228) (iff constraint47 (= gtINDEX6 gtAGG__rtDWork)) (iff constraint48 $x232) (iff constraint49 (= gtINDEX8 gtAGG__rtDWork)) (iff constraint50 $x236) (iff constraint51 (= gtINDEX10 gtAGG__rtDWork)) (iff constraint52 $x240) (iff constraint53 (= gtINDEX12 gtAGG__rtDWork)) (iff constraint54 $x244) (iff constraint55 (= gtINDEX14 gtAGG__rtDWork)) (iff constraint56 $x248) (iff constraint57 (= gtINDEX16 gtAGG__rtDWork)) (iff constraint58 $x252) (iff constraint59 (= gtINDEX18 gtAGG__rtDWork)) (iff constraint60 $x256) (iff constraint61 (= gtINDEX20 gtAGG__rtDWork)) (iff constraint62 (= gtINDEX21 gtAGG__rtDWork)) (iff constraint63 (= gtINDEX22 gtAGG__rtDWork)) (iff constraint64 (= gtINDEX23 gtAGG__rtDWork)) (iff constraint65 (= gtINDEX24 gtAGG__rtDWork)) (iff constraint66 (= gtINDEX25 gtAGG__rtDWork)) (iff constraint67 (= gtINDEX26 gtAGG__rtDWork)) (iff constraint68 $x266) (iff constraint69 (= gtINDEX28 gtAGG__rtDWork)) (iff constraint70 $x270) (iff constraint71 (= gtINDEX30 gtAGG__rtDWork)) (iff constraint72 $x274) (iff constraint73 (= gtINDEX32 gtAGG__rtDWork)) (iff constraint74 $x278) (iff constraint75 (= gtINDEX34 gtAGG__rtDWork)) (iff constraint76 $x282) (iff constraint77 (= gtINDEX36 gtAGG__rtDWork)) (iff constraint78 $x286) (iff constraint79 (= gtINDEX38 gtAGG__rtDWork)) (iff constraint80 $x290) (iff constraint81 (= gtINDEX40 gtAGG__rtDWork)) (iff constraint82 $x294) (iff constraint83 (= gtINDEX42 gtAGG__rtDWork)) (iff constraint84 $x298) (iff constraint85 (= gtINDEX44 gtAGG__rtDWork)) (iff constraint86 $x302) (iff constraint87 (= gtINDEX46 gtAGG__rtDWork)) (iff constraint88 (= gtINDEX47 gtAGG__rtDWork)) (iff constraint89 (= gtINDEX48 gtAGG__rtDWork)) (iff constraint90 (= gtINDEX49 gtAGG__rtDWork)) (iff constraint91 (= gtINDEX50 gtAGG__rtDWork)) (iff constraint92 $x310) (iff constraint93 (= gtINDEX52 gtAGG__rtDWork)) (iff constraint94 $x314) (iff constraint95 (= gtINDEX54 gtAGG__rtDWork)) (iff constraint96 $x318) (iff constraint97 (= gtINDEX56 gtAGG__rtDWork)) (iff constraint98 $x322)))
(and $x521 $x522))))))))))))))))))))))))))))))))))))))))))))))))))))))))))))))))))
)
